\ Model vert
\ LP format - for model browsing. Use MPS format to capture full model detail.
Minimize
  2519.145549122126 S_coef + 13.65785346684333 Constant + [ 232324 S_coef ^2
   ] / 2 
Subject To
Bounds
 -1000 <= S_coef <= 1000
 Constant = 1
End
